8424
29, 20, 50, 31, 18, 3, 17, 21, 42, 2, 7, 30, 23, 22, 49, 1, 32, 45, 41, 19, 8, 9, 10, 33, 43, 4, 25, 12, 51, 11, 52, 13, 14, 47, 26, 27, 28, 46, 48, 24, 6, 5, 15, 38, 40, 37, 39, 35, 36, 34, 44, 16
